9 
9 
9 
5 
7 
13 
10 
13 
8 
7 
6 
3 
3 
9 
8 
6 
10 
6 
5 
11 
10 
6 
4 
5 
6 
9 
8 
8 
7 
11 
7 
10 
7 
13 
5 
13 
8 
8 
8 
3 
13 
12 
15 
5 
6 
6 
10 
11 
5 
5 
13 
6 
5 
11 
8 
3 
16 
3 
6 
5 
10 
7 
5 
8 
8 
15 
6 
8 
9 
8 
16 
8 
8 
8 
9 
5 
12 
11 
8 
14 
6 
8 
9 
3 
7 
11 
10 
10 
6 
6 
7 
6 
10 
14 
7 
12 
8 
10 
10 
4 
